# Solution for model r5_t18_m2_8 Batch Number: 2
# Finished Task: 16 / 18
# Makespan: 762.0, Total Distance: 378.0, Total Time: 1.3375
# R O S F Batch
0 0 5 0.0 0.0 -1
1 1 18 0.0 0.0 -1
2 2 20 0.0 0.0 -1
3 3 11 0.0 0.0 -1
4 4 10 0.0 0.0 -1
5 0 -1 705.0 729.0 1
6 3 -1 667.0 705.0 1
7 2 -1 729.0 762.0 1
8 4 14 479.0 499.0 0
9 4 -1 701.0 729.0 1
10 4 8 406.0 441.0 0
11 3 6 522.0 556.0 0
12 1 -1 383.0 403.0 0
13 4 9 637.0 667.0 1
14 4 19 499.0 533.0 0
15 2 17 487.0 512.0 0
16 -1 -1 -1.0 -1.0 1
17 2 7 533.0 556.0 0
18 1 12 284.0 320.0 0
19 4 13 588.0 620.0 1
20 2 21 372.0 406.0 0
21 2 15 419.0 448.0 0
22 -1 -1 -1.0 -1.0 1
